p tw 587 668
1 2
2 113
3 14
4 5
4 40
5 6
6 7
6 255
7 8
8 9
8 50
9 10
10 11
10 33
11 12
12 13
12 37
13 15
14 25
15 16
15 30
16 17
17 18
17 43
18 19
19 20
19 353
20 21
21 22
21 52
22 23
23 24
23 46
24 498
25 36
26 27
27 28
28 29
29 573
30 31
31 32
32 573
33 34
34 35
35 573
36 47
36 91
37 38
38 39
39 52
40 41
41 42
42 52
43 44
44 45
45 52
46 48
47 58
48 49
49 52
50 51
51 52
52 53
53 54
54 55
55 56
56 57
57 59
57 79
58 69
59 60
60 61
61 62
62 63
62 67
63 64
64 65
65 66
66 74
67 68
68 70
69 80
70 71
71 72
72 73
73 74
74 75
75 76
76 77
77 78
77 52
78 528
79 81
80 147
81 82
82 83
83 84
84 85
85 86
86 87
87 88
87 89
88 89
89 90
90 92
90 134
91 102
92 93
93 94
94 95
95 96
95 98
96 97
97 145
98 99
99 100
100 101
100 134
101 103
102 114
103 104
104 105
105 106
105 110
106 107
107 108
108 109
109 118
110 111
111 112
112 115
113 224
114 125
115 116
116 117
117 118
118 119
119 120
120 121
121 122
121 228
122 123
123 124
123 131
124 126
125 136
126 127
126 131
127 128
128 129
129 130
130 216
131 132
132 133
133 145
134 135
135 137
135 166
136 147
137 138
138 139
138 166
139 140
140 141
141 142
142 143
142 145
143 144
144 145
144 166
145 146
146 148
147 158
148 149
149 150
150 151
150 155
151 152
152 153
153 154
154 162
155 156
156 157
157 159
158 169
159 160
160 161
161 162
162 163
163 164
164 165
165 166
165 528
166 167
167 168
168 170
169 180
170 171
171 172
172 173
173 174
174 175
175 176
176 177
177 178
178 179
178 181
179 181
179 183
180 191
181 182
182 183
182 528
183 184
184 185
184 228
185 186
186 187
187 188
187 228
188 189
188 228
189 190
190 192
191 202
192 193
193 194
194 195
195 196
196 197
197 198
198 199
199 200
200 201
201 203
201 207
202 213
203 204
204 205
205 206
206 214
207 208
208 209
209 210
210 211
211 212
212 214
213 225
213 528
214 215
215 216
216 217
217 218
218 219
219 220
220 221
221 222
222 223
223 226
224 335
225 236
226 227
227 183
228 229
229 230
229 522
230 231
231 232
231 233
232 233
233 234
234 235
234 243
235 237
236 247
237 238
238 239
239 240
240 241
241 242
242 252
243 244
244 245
245 246
246 248
247 258
248 249
249 250
250 251
251 252
252 253
253 254
254 522
255 256
256 257
257 259
258 269
258 463
259 260
260 261
261 383
262 263
263 264
264 265
265 266
266 267
267 268
268 270
269 280
270 271
270 274
271 272
272 273
273 276
274 275
275 276
276 277
277 278
278 279
279 281
280 291
281 282
282 283
282 285
283 284
284 285
284 293
285 286
286 287
287 288
288 289
289 290
290 292
291 302
292 293
293 294
294 295
295 296
296 297
297 298
298 299
298 350
299 300
299 528
300 301
301 303
301 342
302 313
303 304
304 305
304 342
305 333
305 306
305 340
306 307
307 308
308 309
309 310
310 311
311 312
312 314
312 333
313 324
314 315
315 316
316 317
317 318
318 319
319 320
320 321
321 322
321 329
322 323
323 325
324 336
325 326
326 327
327 328
328 317
329 330
330 331
331 332
332 342
333 334
334 337
335 446
336 347
337 338
338 339
339 342
340 341
341 342
342 343
343 344
344 345
345 346
346 348
347 358
348 349
349 295
350 351
351 352
352 383
353 354
354 355
355 356
356 357
357 359
358 369
359 360
360 361
361 362
361 383
362 363
363 364
364 365
365 366
365 371
366 367
367 368
368 370
369 380
370 377
371 372
372 373
373 374
374 375
375 376
376 377
377 378
378 379
379 381
380 391
381 382
381 355
382 528
383 384
384 385
385 386
386 387
387 388
388 389
389 390
389 408
390 392
391 402
392 393
393 394
394 395
395 396
396 397
397 398
398 399
398 404
399 400
400 401
401 403
402 413
403 404
403 408
404 405
405 406
405 528
406 407
407 528
408 409
409 410
410 411
411 412
412 414
413 424
414 415
414 418
415 416
416 417
417 418
418 419
419 420
420 421
421 422
422 423
422 428
423 425
424 435
425 426
426 427
427 434
428 429
429 430
430 431
431 432
432 433
433 434
434 436
435 447
436 437
437 438
438 439
438 452
439 440
440 441
440 452
441 442
442 443
443 444
444 445
445 448
446 544
446 555
447 458
448 449
449 450
450 451
451 452
451 412
452 453
453 454
453 522
454 455
454 456
455 456
456 457
457 459
458 469
459 522
460 461
461 462
462 498
463 464
464 465
465 466
466 467
467 468
468 470
469 480
470 471
470 498
471 472
472 473
473 474
474 475
475 476
476 477
476 522
477 478
478 479
479 481
480 491
481 482
481 486
482 483
483 484
484 485
485 493
486 487
487 488
488 489
489 490
490 492
491 502
492 493
493 494
494 495
495 496
496 497
496 471
497 528
498 499
499 500
500 501
501 503
502 513
503 504
504 505
504 528
505 506
506 507
507 508
508 509
508 514
509 510
510 511
511 512
512 520
513 524
514 515
515 516
516 517
517 518
518 519
519 520
520 521
521 522
522 523
523 525
524 535
524 546
525 526
526 527
527 528
527 191
528 529
529 530
530 531
530 533
531 532
531 533
532 541
533 534
534 536
534 539
535 543
536 537
537 538
538 539
539 540
540 541
541 542
543 545
544 541
545 546
546 547
547 548
548 549
549 550
550 551
551 552
552 553
553 554
554 556
555 566
556 557
557 558
557 571
558 559
559 560
559 561
560 561
561 562
562 563
563 564
564 565
565 567
566 577
567 568
568 569
569 570
570 549
571 572
572 573
573 574
574 575
575 576
576 578
577 3
578 579
579 580
580 581
581 582
582 583
582 460
583 584
584 585
584 26
585 586
586 587
586 262
587 4
